mixintcount/benchmarks/random_v2l/5_5_6309.smt2
(set-logic QF_LIA)
(set-info :ran/ran2.smt2)
(set-info :smt-lib-version 2.0)
(declare-fun x1 () Int)
(declare-fun x2 () Int)
(declare-fun x3 () Int)
(declare-fun x4 () Int)
(declare-fun x5 () Int)
(assert (<= (+ (* (- 4) x1) (* 10 x2) (* 8 x3) (* (- 2) x4) (* 2 x5) ) 1683))
(assert (<= (+ (* (- 2) x1) (* 7 x2) (* (- 5) x3) (* 5 x4) (* 7 x5) ) (- 575)))
(assert (<= (+ (* 1 x1) (* 7 x2) (* (- 3) x3) (* 0 x4) (* (- 5) x5) ) (- 3832)))
(assert (<= (+ (* (- 3) x1) (* 10 x2) (* (- 7) x3) (* (- 6) x4) (* 6 x5) ) (- 1246)))
(assert (<= (+ (* (- 9) x1) (* (- 8) x2) (* 9 x3) (* 0 x4) (* 7 x5) ) 1474))
(assert (<= (+ (* (- 7) x1) (* (- 7) x2) (* 1 x3) (* (- 10) x4) (* 1 x5) ) (- 4381)))
(assert (<= (+ (* 4 x1) (* 9 x2) (* 8 x3) (* 9 x4) (* 1 x5) ) 3053))
(assert (<= (+ (* (- 6) x1) (* 10 x2) (* (- 2) x3) (* 2 x4) (* (- 3) x5) ) 288))
(assert (<= (+ (* 10 x1) (* 5 x2) (* 3 x3) (* (- 9) x4) (* 9 x5) ) 6053))
(assert (<= (+ (* (- 8) x1) (* 9 x2) (* (- 3) x3) (* 10 x4) (* (- 2) x5) ) 3287))
(assert (<= (+ (* 1 x1) (* 0 x2) (* 0 x3) (* 0 x4) (* 0 x5) ) 6309))
(assert (<= (+ (* (- 1) x1) (* 0 x2) (* 0 x3) (* 0 x4) (* 0 x5) ) 6309))
(assert (<= (+ (* 0 x1) (* 1 x2) (* 0 x3) (* 0 x4) (* 0 x5) ) 6309))
(assert (<= (+ (* 0 x1) (* (- 1) x2) (* 0 x3) (* 0 x4) (* 0 x5) ) 6309))
(assert (<= (+ (* 0 x1) (* 0 x2) (* 1 x3) (* 0 x4) (* 0 x5) ) 6309))
(assert (<= (+ (* 0 x1) (* 0 x2) (* (- 1) x3) (* 0 x4) (* 0 x5) ) 6309))
(assert (<= (+ (* 0 x1) (* 0 x2) (* 0 x3) (* 1 x4) (* 0 x5) ) 6309))
(assert (<= (+ (* 0 x1) (* 0 x2) (* 0 x3) (* (- 1) x4) (* 0 x5) ) 6309))
(assert (<= (+ (* 0 x1) (* 0 x2) (* 0 x3) (* 0 x4) (* 1 x5) ) 6309))
(assert (<= (+ (* 0 x1) (* 0 x2) (* 0 x3) (* 0 x4) (* (- 1) x5) ) 6309))
