mixintcount/benchmarks/random_v2l/5_5_6309.in
20 7
#	x1	x2	x3	x4	x5;		0 = Real; 1 = Integer
	1	1	1	1	1
1	-4	10	8	-2	2	1683
1	-2	7	-5	5	7	-575
1	1	7	-3	0	-5	-3832
1	-3	10	-7	-6	6	-1246
1	-9	-8	9	0	7	1474
1	-7	-7	1	-10	1	-4381
1	4	9	8	9	1	3053
1	-6	10	-2	2	-3	288
1	10	5	3	-9	9	6053
1	-8	9	-3	10	-2	3287
1	1	0	0	0	0	6309
1	-1	0	0	0	0	6309
1	0	1	0	0	0	6309
1	0	-1	0	0	0	6309
1	0	0	1	0	0	6309
1	0	0	-1	0	0	6309
1	0	0	0	1	0	6309
1	0	0	0	-1	0	6309
1	0	0	0	0	1	6309
1	0	0	0	0	-1	6309
